(set-info :smt-lib-version 2.6)
(set-logic QF_BV)
(set-info :source |
 Patrice Godefroid, SAGE (systematic dynamic test generation)
 For more information: http://research.microsoft.com/en-us/um/people/pg/public_psfiles/ndss2008.pdf
|)
(set-info :category "industrial")
(set-info :status unsat)
(declare-fun T2_25596 () (_ BitVec 16))
(declare-fun T1_25587 () (_ BitVec 8))
(declare-fun T1_25596 () (_ BitVec 8))
(declare-fun T1_25597 () (_ BitVec 8))
(assert (and true (= T2_25596 (bvor (bvshl ((_ zero_extend 8) T1_25597) (_ bv8 16)) ((_ zero_extend 8) T1_25596))) (bvslt (bvsub (bvadd (bvadd (bvsub ((_ zero_extend 24) T1_25587) (_ bv8 32)) (_ bv1577093 32)) ((_ zero_extend 16) T2_25596)) (_ bv1576897 32)) (_ bv0 32))))
(check-sat)
(exit)
